language Essence 1.3

letting pos be
        function((1, 1) --> 1, (1, 2) --> 3, (2, 1) --> 2, (2, 2) --> 5, (3, 1) --> 4, (3, 2) --> 8, (4, 1) --> 10,
                 (4, 2) --> 15, (5, 1) --> 11, (5, 2) --> 17, (6, 1) --> 13, (6, 2) --> 20, (7, 1) --> 16,
                 (7, 2) --> 24, (8, 1) --> 14, (8, 2) --> 23, (9, 1) --> 12, (9, 2) --> 22, (10, 1) --> 7,
                 (10, 2) --> 18, (11, 1) --> 9, (11, 2) --> 21, (12, 1) --> 6, (12, 2) --> 19)
